NAME: instance_11
TYPE: TSP
COMMENT: 11-city problem
DIMENSION: 11
EDGE_WEIGHT_TYPE: EUC_2D
NODE_COORD_SECTION
0 862 669
1 633 237
2 52 746
3 180 80
4 570 957
5 394 997
6 490 509
7 589 483
8 383 329
9 414 990
10 776 899
EOF
